NAME: ACTUAL_TOURS/amz2071
TYPE: TOUR
COMMENT: RouteID_dc181176-d6da-417c-a4f6-6c57662c6411
DIMENSION: 116
TOUR_SECTION
101
8
24
48
75
95
15
47
51
10
45
25
79
115
11
80
14
107
85
106
67
98
81
49
3
63
60
76
41
100
112
110
90
84
52
1
35
103
70
114
111
6
89
23
91
7
69
116
96
16
5
65
74
42
17
92
37
44
86
54
12
99
50
68
22
83
34
97
29
40
32
9
78
61
28
109
18
77
72
104
43
4
105
113
33
31
53
20
56
26
71
108
55
62
66
102
46
88
30
64
21
94
57
2
39
58
73
93
27
82
19
38
59
87
13
36
-1
EOF
